
Gurobi 10.0.1 (linux64) logging started Sun Nov 26 15:52:54 2023

Set parameter LogFile to value "ArtificialInstance/ExperimentV2/S4T4K2/AdRo/gurobiSpRo27.txt"
Gurobi Optimizer version 10.0.1 build v10.0.1rc0 (linux64)

CPU model: AMD EPYC 7H12 64-Core Processor, instruction set [SSE2|AVX|AVX2]
Thread count: 128 physical cores, 128 logical processors, using up to 32 threads

Academic license 656792 - for non-commercial use only - registered to b.___@student.vu.nl
Optimize a model with 11354 rows, 10816 columns and 42019 nonzeros
Model fingerprint: 0x038dc723
Variable types: 1 continuous, 10815 integer (10815 binary)
Coefficient statistics:
  Matrix range     [1e+00, 4e+01]
  Objective range  [1e+00, 2e+01]
  Bounds range     [1e+00, 1e+00]
  RHS range        [1e+00, 1e+00]
Presolve removed 4149 rows and 3871 columns
Presolve time: 0.15s
Presolved: 7205 rows, 6945 columns, 27050 nonzeros
Variable types: 1 continuous, 6944 integer (6944 binary)
Found heuristic solution: objective 80.1150386

Root relaxation: objective 7.666031e+01, 1640 iterations, 0.06 seconds (0.03 work units)

    Nodes    |    Current Node    |     Objective Bounds      |     Work
 Expl Unexpl |  Obj  Depth IntInf | Incumbent    BestBd   Gap | It/Node Time

     0     0   76.66031    0   64   80.11504   76.66031  4.31%     -    0s
H    0     0                      76.6603076   76.66031  0.00%     -    0s
     0     0   76.66031    0   64   76.66031   76.66031  0.00%     -    0s

Explored 1 nodes (2994 simplex iterations) in 0.31 seconds (0.22 work units)
Thread count was 32 (of 128 available processors)

Solution count 2: 76.6603 80.115 

Optimal solution found (tolerance 1.00e-04)
Best objective 7.666030761653e+01, best bound 7.666030761653e+01, gap 0.0000%
